NAME lp_typeD_4884
OBJSENSE MAX
ROWS
 N  OBJ
 L  c0      
 L  c1      
 L  c2      
 G  c3      
 G  c4      
 G  c5      
 L  c_key_upper
 G  c_key_lower
 G  _chain_constr_1
 G  _chain_constr_2
 G  _chain_constr_3
 G  _chain_constr_4
 G  _chain_constr_5
 G  _chain_cycle
COLUMNS
    x0        OBJ       1.1926148081188845e+00
    x0        c0        1.9610706957897905e+00
    x0        c1        1.7173540187552740e+00
    x0        c2        1.4555887969608170e+00
    x0        c3        1.0880927597254688e+00
    x0        c4        5.1827686172943144e-01
    x0        c5        1.1980588857689223e+00
    x0        c_key_upper  1.9577631795375772e+00
    x0        c_key_lower  1.9577631795375772e+00
    x1        OBJ       0.629557558410478
    x1        c0        6.3884223565010978e-01
    x1        c1        6.2049002010132281e-01
    x1        c2        1.3353814711868379e+00
    x1        c3        1.9288221289727034e+00
    x1        c4        0.550812429521686
    x1        c5        9.3385027614298333e-01
    x1        c_key_upper  1.8592127415440984e+00
    x1        c_key_lower  1.8592127415440984e+00
    x2        OBJ       1.1748430125192004e+00
    x2        c0        6.9870414818454107e-01
    x2        c1        7.6262098876773121e-01
    x2        c2        1.2414698822809578e+00
    x2        c3        5.5562680543287957e-01
    x2        c4        8.0184576249279349e-01
    x2        c5        1.6061001462905504e+00
    x2        c_key_upper  1.3444845677833186e+00
    x2        c_key_lower  1.3444845677833186e+00
    x3        OBJ       6.8300050847774840e-01
    x3        c0        1.7557593527860953e+00
    x3        c1        0.638151049040736
    x3        c2        1.2254135970872773e+00
    x3        c3        1.7825377152489752e+00
    x3        c4        7.3122306260432446e-01
    x3        c5        6.9816884929396117e-01
    x3        c_key_upper  1.2276120030005568e+00
    x3        c_key_lower  1.2276120030005568e+00
    x4        OBJ       1.1184015140804253e+00
    x4        c0        0.856648146678338
    x4        c1        1.6849388273728620e+00
    x4        c2        1.1636619726704573e+00
    x4        c3        1.9083389276305216e+00
    x4        c4        1.5168863964653454e+00
    x4        c5        5.0318226809991273e-01
    x4        c_key_upper  1.0627059700422083e+00
    x4        c_key_lower  1.0627059700422083e+00
    x5        OBJ       0.647660924159175
    x5        c0        1.2588342561141872e+00
    x5        c1        1.1546131102437263e+00
    x5        c2        8.0380329686714114e-01
    x5        c3        1.1327744820663959e+00
    x5        c4        1.0963263333583755e+00
    x5        c5        1.4523240760285208e+00
    x5        c_key_upper  1.8765720471049705e+00
    x5        c_key_lower  1.8765720471049705e+00
    x6        OBJ       1.4342564115663174e+00
    x6        c0        6.8864948391948033e-01
    x6        c1        1.2244339822183015e+00
    x6        c2        1.3014946136543712e+00
    x6        c3        1.6610018028955029e+00
    x6        c4        5.3911591116783630e-01
    x6        c5        1.4539565007475397e+00
    x6        c_key_upper  1.0025052732879489e+00
    x6        c_key_lower  1.0025052732879489e+00
    _chain_var_0  _chain_constr_1  -1
    _chain_var_0  _chain_cycle  1
    _chain_var_1  _chain_constr_1  1
    _chain_var_1  _chain_constr_2  -1
    _chain_var_2  _chain_constr_2  1
    _chain_var_2  _chain_constr_3  -1
    _chain_var_3  _chain_constr_3  1
    _chain_var_3  _chain_constr_4  -1
    _chain_var_4  _chain_constr_4  1
    _chain_var_4  _chain_constr_5  -1
    _chain_var_5  _chain_constr_5  1
    _chain_var_5  _chain_cycle  -1
RHS
    RHS1      c0        4.6453882379175937e+01
    RHS1      c1        3.4256591997890787e+01
    RHS1      c2        3.8966951362010839e+01
    RHS1      c3        1.3445001750694576e+01
    RHS1      c4        8.9258950860423365e+00
    RHS1      c5        1.3077791792672302e+01
    RHS1      c_key_upper  5.1654278911503390e+01
    RHS1      c_key_lower  2.5827139455751695e+01
    RHS1      _chain_constr_1  10
    RHS1      _chain_constr_2  10
    RHS1      _chain_constr_3  10
    RHS1      _chain_constr_4  10
    RHS1      _chain_constr_5  10
    RHS1      _chain_cycle  10
BOUNDS
 UP BND1      x0        10
 UP BND1      x1        10
 UP BND1      x2        10
 UP BND1      x3        10
 UP BND1      x4        10
 UP BND1      x5        10
 UP BND1      x6        10
 UP BND1      _chain_var_0  100
 UP BND1      _chain_var_1  100
 UP BND1      _chain_var_2  100
 UP BND1      _chain_var_3  100
 UP BND1      _chain_var_4  100
 UP BND1      _chain_var_5  100
ENDATA
